4	143	143	0	0	0
5	144	103	0	0	0
6	236	184	0	15	15
7	279	240	0	15	15
8	267	244	0	16	16
9	261	225	0	32	32
10	385	228	0	16	16
11	438	314	0	203	203
12	377	309	0	15	15
13	541	338	0	31	31
14	551	393	0	32	32
15	675	416	0	47	47
16	560	355	0	32	32
17	656	410	0	94	94
18	634	440	0	187	187
19	875	511	0	78	78
